GLPSOL--GLPK LP/MIP Solver 5.0
Parameter(s) specified in the command line:
 --lp ../modeles/4_424.lp --log 4_424.log
Reading problem data from '../modeles/4_424.lp'...
1713 rows, 3400 columns, 11884 non-zeros
1696 integer variables, all of which are binary
5123 lines were read
GLPK Integer Optimizer 5.0
1713 rows, 3400 columns, 11884 non-zeros
1696 integer variables, all of which are binary
Preprocessing...
1672 constraint coefficient(s) were reduced
1713 rows, 3396 columns, 11880 non-zeros
1696 integer variables, all of which are binary
Scaling...
 A: min|aij| =  8.900e-05  max|aij| =  4.000e+00  ratio =  4.494e+04
GM: min|aij| =  6.868e-02  max|aij| =  1.456e+01  ratio =  2.120e+02
EQ: min|aij| =  4.717e-03  max|aij| =  1.000e+00  ratio =  2.120e+02
2N: min|aij| =  3.906e-03  max|aij| =  1.756e+00  ratio =  4.494e+02
Constructing initial basis...
Size of triangular part is 1713
Solving LP relaxation...
GLPK Simplex Optimizer 5.0
1713 rows, 3396 columns, 11880 non-zeros
      0: obj =   8.000000000e+00 inf =   1.950e+01 (9)
     99: obj =   4.465138013e-01 inf =   0.000e+00 (0)
*   333: obj =  -2.000000000e+00 inf =   4.544e-15 (0)
OPTIMAL LP SOLUTION FOUND
Integer optimization begins...
Long-step dual simplex will be used
+   333: mip =     not found yet >=              -inf        (1; 0)
+   333: >>>>>  -2.000000000e+00 >=  -2.000000000e+00   0.0% (1; 0)
+   333: mip =  -2.000000000e+00 >=     tree is empty   0.0% (0; 1)
INTEGER OPTIMAL SOLUTION FOUND
Time used:   0.0 secs
Memory used: 4.8 Mb (5066878 bytes)
